c This is QMaxSAT 2017 based on 14.07
c This is Glucose 3.0
c This is MiniSat 2.2.0
c WARNING: for repeatability, setting FPU to use double precision
c card = mrwto, comp = 0, pmodel = 0, narr = 2, mct = 29, verb = 0
cr firstCPXsol 0 0 0
c top = 167313
c |  Number of variables:    3598002                                          |
c |  Number of clauses:      245915072                                        |
c |  Weight of hard clauses: 167313                                           |
c |  Number of soft clauses: 1624                                             |
c |  Number of unit soft clauses: 1624                                        |
c |  Maximum Cardinality (by unit): 334624       (334624      )               |
c last restart ## conflicts  :  311 362207 
o 3186 | cpuTime 49.9491 s
c Sum of weights = 167312
c A number of soft clauses remained = 812
c MRWTO encoding for Pseudo-Boolean Constraints
c sizeMax=3186
c No.0 Divisor=15	generated by pow1
c No.1 Divisor=15	generated by pow1
c No.2 Divisor=15	generated by pow1
c p0= 15	p1= 15	p2= 15	
c number of digits = 4
c linkingVar[0].size = 15, linkingVar[1].size = 15, linkingVar[2].size = 15, linkingVar[3].size = 1, 
c Pseudo-Boolean Constraints: 20752 variables and 251002 clauses
c Sum of weights = 167312
c A number of soft clauses remained = 812
c MRWTO encoding for Pseudo-Boolean Constraints
c sizeMax=3186
c No.0 Divisor=15	generated by pow1
c No.1 Divisor=15	generated by pow1
c No.2 Divisor=15	generated by pow1
c p0= 15	p1= 15	p2= 15	
c number of digits = 4
c linkingVar[0].size = 15, linkingVar[1].size = 15, linkingVar[2].size = 15, linkingVar[3].size = 1, 
c Pseudo-Boolean Constraints: 20752 variables and 251002 clauses
s UNKNOWN
c Search is stopped by a limit (maybe time-limit)
cr positiVarArr: [ | 2@1(1->2) | 32@1(2->3) | 62@1(3->4) | 92@1(4->5) | 122@1(5->6) | 152@1(6->7) | 182@1(7->8) | 212@1(8->9) | 242@1(9->10) | 272@1(10->11) | 302@1(11->12) | 332@1(12->13) | 362@1(13->14) | 392@1(14->15) | 407@1(15->1) | 857@2(1->16) | 1293@2(16->17) | 1323@2(17->18) | 1353@2(18->19) | 1383@2(19->20) | 1413@2(20->21) | 1443@2(21->22) | 1473@2(22->23) | 1503@2(23->24) | 1533@2(24->25) | 1563@2(25->26) | 1593@2(26->27) | 1623@2(27->28) | 1653@2(28->29) | 1654@2(29->1) | ]
cr the 1-th chain: [ 1->2->3->4->5->6->7->8->9->10->11->12->13->14->15->1 ] (#non-depot=14) {#cumul.=15}
cr the 2-th chain: [ 1->16->17->18->19->20->21->22->23->24->25->26->27->28->29->1 ] (#non-depot=14) {#cumul.=29}
c Latest Answer = 0 by 1 loops
c restarts              : 778
c conflicts             : 177171         (49 /sec)
c decisions             : 5135313        (0.00 % random) (1425 /sec)
c propagations          : 14385390878    (3992755 /sec)
c conflict literals     : 6458801        (14.81 % deleted)
c Memory used           : 14382.00 MB
c CPU time              : 3602.87 s
